p cnf 967 2484
51 -700 -1 0
-51 700 0
-51 1 0
52 -51 -701 0
-52 51 0
-52 701 0
53 -5 -4 0
-53 5 0
-53 4 0
54 -53 -701 0
-54 53 0
-54 701 0
55 -702 -703 0
-55 702 0
-55 703 0
56 -6 -704 0
-56 6 0
-56 704 0
57 -56 -705 0
-57 56 0
-57 705 0
58 -706 -55 0
-58 706 0
-58 55 0
59 -9 -707 0
-59 9 0
-59 707 0
60 -59 -708 0
-60 59 0
-60 708 0
61 -709 -58 0
-61 709 0
-61 58 0
62 -11 -2 0
-62 11 0
-62 2 0
63 -62 -12 0
-63 62 0
-63 12 0
64 -710 -61 0
-64 710 0
-64 61 0
65 -711 -712 0
-65 711 0
-65 712 0
66 -65 -701 0
-66 65 0
-66 701 0
67 -713 -64 0
-67 713 0
-67 64 0
68 -15 -712 0
-68 15 0
-68 712 0
69 -68 -1 0
-69 68 0
-69 1 0
70 -714 -67 0
-70 714 0
-70 67 0
71 -715 -2 0
-71 715 0
-71 2 0
72 -71 -17 0
-72 71 0
-72 17 0
73 -716 -70 0
-73 716 0
-73 70 0
74 -18 -717 0
-74 18 0
-74 717 0
75 -74 -718 0
-75 74 0
-75 718 0
76 -719 -73 0
-76 719 0
-76 73 0
77 -21 -720 0
-77 21 0
-77 720 0
78 -77 -3 0
-78 77 0
-78 3 0
79 -721 -76 0
-79 721 0
-79 76 0
80 -722 -711 0
-80 722 0
-80 711 0
81 -80 -723 0
-81 80 0
-81 723 0
82 -724 -79 0
-82 724 0
-82 79 0
83 -725 -704 0
-83 725 0
-83 704 0
84 -83 -25 0
-84 83 0
-84 25 0
85 -726 -82 0
-85 726 0
-85 82 0
86 -26 -720 0
-86 26 0
-86 720 0
87 -86 -27 0
-87 86 0
-87 27 0
88 -727 -85 0
-88 727 0
-88 85 0
89 -728 -4 0
-89 728 0
-89 4 0
90 -89 -9 0
-90 89 0
-90 9 0
91 -729 -88 0
-91 729 0
-91 88 0
92 -28 -24 0
-92 28 0
-92 24 0
93 -92 -29 0
-93 92 0
-93 29 0
94 -730 -91 0
-94 730 0
-94 91 0
95 -30 -705 0
-95 30 0
-95 705 0
96 -95 -31 0
-96 95 0
-96 31 0
97 -731 -94 0
-97 731 0
-97 94 0
98 -32 -732 0
-98 32 0
-98 732 0
99 -98 -733 0
-99 98 0
-99 733 0
100 -734 -97 0
-100 734 0
-100 97 0
101 -22 -9 0
-101 22 0
-101 9 0
102 -101 -733 0
-102 101 0
-102 733 0
103 -735 -100 0
-103 735 0
-103 100 0
104 -30 -27 0
-104 30 0
-104 27 0
105 -104 -736 0
-105 104 0
-105 736 0
106 -737 -103 0
-106 737 0
-106 103 0
107 -36 -35 0
-107 36 0
-107 35 0
108 -107 -25 0
-108 107 0
-108 25 0
109 -738 -106 0
-109 738 0
-109 106 0
110 -37 -8 0
-110 37 0
-110 8 0
111 -110 -38 0
-111 110 0
-111 38 0
112 -739 -109 0
-112 739 0
-112 109 0
113 -740 -11 0
-113 740 0
-113 11 0
114 -113 -741 0
-114 113 0
-114 741 0
115 -742 -112 0
-115 742 0
-115 112 0
116 -743 -715 0
-116 743 0
-116 715 0
117 -116 -744 0
-117 116 0
-117 744 0
118 -745 -115 0
-118 745 0
-118 115 0
119 -41 -746 0
-119 41 0
-119 746 0
120 -119 -5 0
-120 119 0
-120 5 0
121 -747 -118 0
-121 747 0
-121 118 0
122 -25 -14 0
-122 25 0
-122 14 0
123 -122 -21 0
-123 122 0
-123 21 0
124 -748 -121 0
-124 748 0
-124 121 0
125 -749 -4 0
-125 749 0
-125 4 0
126 -125 -720 0
-126 125 0
-126 720 0
127 -750 -124 0
-127 750 0
-127 124 0
128 -42 -9 0
-128 42 0
-128 9 0
129 -128 -17 0
-129 128 0
-129 17 0
130 -751 -127 0
-130 751 0
-130 127 0
131 -752 -30 0
-131 752 0
-131 30 0
132 -131 -10 0
-132 131 0
-132 10 0
133 -753 -130 0
-133 753 0
-133 130 0
134 -22 -711 0
-134 22 0
-134 711 0
135 -134 -754 0
-135 134 0
-135 754 0
136 -755 -133 0
-136 755 0
-136 133 0
137 -756 -15 0
-137 756 0
-137 15 0
138 -137 -44 0
-138 137 0
-138 44 0
139 -757 -136 0
-139 757 0
-139 136 0
140 -758 -7 0
-140 758 0
-140 7 0
141 -140 -5 0
-141 140 0
-141 5 0
142 -759 -139 0
-142 759 0
-142 139 0
143 -22 -3 0
-143 22 0
-143 3 0
144 -143 -40 0
-144 143 0
-144 40 0
145 -760 -142 0
-145 760 0
-145 142 0
146 -761 -39 0
-146 761 0
-146 39 0
147 -146 -736 0
-147 146 0
-147 736 0
148 -762 -145 0
-148 762 0
-148 145 0
149 -2 -704 0
-149 2 0
-149 704 0
150 -149 -763 0
-150 149 0
-150 763 0
151 -764 -148 0
-151 764 0
-151 148 0
152 -41 -27 0
-152 41 0
-152 27 0
153 -152 -33 0
-153 152 0
-153 33 0
154 -765 -151 0
-154 765 0
-154 151 0
155 -752 -766 0
-155 752 0
-155 766 0
156 -155 -17 0
-156 155 0
-156 17 0
157 -767 -154 0
-157 767 0
-157 154 0
158 -768 -33 0
-158 768 0
-158 33 0
159 -158 -40 0
-159 158 0
-159 40 0
160 -769 -157 0
-160 769 0
-160 157 0
161 -19 -1 0
-161 19 0
-161 1 0
162 -161 -701 0
-162 161 0
-162 701 0
163 -770 -160 0
-163 770 0
-163 160 0
164 -47 -754 0
-164 47 0
-164 754 0
165 -164 -771 0
-165 164 0
-165 771 0
166 -772 -163 0
-166 772 0
-166 163 0
167 -761 -756 0
-167 761 0
-167 756 0
168 -167 -705 0
-168 167 0
-168 705 0
169 -773 -166 0
-169 773 0
-169 166 0
170 -48 -27 0
-170 48 0
-170 27 0
171 -170 -701 0
-171 170 0
-171 701 0
172 -774 -169 0
-172 774 0
-172 169 0
173 -743 -763 0
-173 743 0
-173 763 0
174 -173 -701 0
-174 173 0
-174 701 0
175 -775 -172 0
-175 775 0
-175 172 0
176 -35 -776 0
-176 35 0
-176 776 0
177 -176 -743 0
-177 176 0
-177 743 0
178 -777 -175 0
-178 777 0
-178 175 0
179 -49 -4 0
-179 49 0
-179 4 0
180 -179 -3 0
-180 179 0
-180 3 0
181 -778 -178 0
-181 778 0
-181 178 0
182 -779 -32 0
-182 779 0
-182 32 0
183 -182 -740 0
-183 182 0
-183 740 0
184 -780 -181 0
-184 780 0
-184 181 0
185 -728 -14 0
-185 728 0
-185 14 0
186 -185 -1 0
-186 185 0
-186 1 0
187 -781 -184 0
-187 781 0
-187 184 0
188 -32 -6 0
-188 32 0
-188 6 0
189 -188 -50 0
-189 188 0
-189 50 0
190 -782 -187 0
-190 782 0
-190 187 0
191 -758 -712 0
-191 758 0
-191 712 0
192 -191 -783 0
-192 191 0
-192 783 0
193 -784 -190 0
-193 784 0
-193 190 0
194 -98 -761 0
-194 98 0
-194 761 0
195 -785 -193 0
-195 785 0
-195 193 0
196 -28 -2 0
-196 28 0
-196 2 0
197 -196 -44 0
-197 196 0
-197 44 0
198 -786 -195 0
-198 786 0
-198 195 0
199 -42 -5 0
-199 42 0
-199 5 0
200 -199 -723 0
-200 199 0
-200 723 0
201 -787 -198 0
-201 787 0
-201 198 0
202 -43 -749 0
-202 43 0
-202 749 0
203 -202 -740 0
-203 202 0
-203 740 0
204 -788 -201 0
-204 788 0
-204 201 0
205 -32 -1 0
-205 32 0
-205 1 0
206 -205 -708 0
-206 205 0
-206 708 0
207 -789 -204 0
-207 789 0
-207 204 0
208 -25 -13 0
-208 25 0
-208 13 0
209 -208 -790 0
-209 208 0
-209 790 0
210 -791 -207 0
-210 791 0
-210 207 0
211 -711 -11 0
-211 711 0
-211 11 0
212 -211 -23 0
-212 211 0
-212 23 0
213 -792 -210 0
-213 792 0
-213 210 0
214 -793 -11 0
-214 793 0
-214 11 0
215 -214 -23 0
-215 214 0
-215 23 0
216 -794 -213 0
-216 794 0
-216 213 0
217 -725 -17 0
-217 725 0
-217 17 0
218 -217 -790 0
-218 217 0
-218 790 0
219 -795 -216 0
-219 795 0
-219 216 0
220 -24 -707 0
-220 24 0
-220 707 0
221 -220 -723 0
-221 220 0
-221 723 0
222 -796 -219 0
-222 796 0
-222 219 0
223 -17 -712 0
-223 17 0
-223 712 0
224 -223 -746 0
-224 223 0
-224 746 0
225 -797 -222 0
-225 797 0
-225 222 0
226 -798 -799 0
-226 798 0
-226 799 0
227 -226 -33 0
-227 226 0
-227 33 0
228 -800 -225 0
-228 800 0
-228 225 0
229 -749 -700 0
-229 749 0
-229 700 0
230 -229 -36 0
-230 229 0
-230 36 0
231 -801 -228 0
-231 801 0
-231 228 0
232 -802 -799 0
-232 802 0
-232 799 0
233 -232 -50 0
-233 232 0
-233 50 0
234 -803 -231 0
-234 803 0
-234 231 0
235 -776 -17 0
-235 776 0
-235 17 0
236 -235 -736 0
-236 235 0
-236 736 0
237 -804 -234 0
-237 804 0
-237 234 0
238 -798 -758 0
-238 798 0
-238 758 0
239 -238 -28 0
-239 238 0
-239 28 0
240 -805 -237 0
-240 805 0
-240 237 0
241 -46 -717 0
-241 46 0
-241 717 0
242 -241 -29 0
-242 241 0
-242 29 0
243 -806 -240 0
-243 806 0
-243 240 0
244 -717 -1 0
-244 717 0
-244 1 0
245 -244 -8 0
-245 244 0
-245 8 0
246 -807 -243 0
-246 807 0
-246 243 0
247 -36 -7 0
-247 36 0
-247 7 0
248 -247 -723 0
-248 247 0
-248 723 0
249 -808 -246 0
-249 808 0
-249 246 0
250 -798 -18 0
-250 798 0
-250 18 0
251 -250 -12 0
-251 250 0
-251 12 0
252 -809 -249 0
-252 809 0
-252 249 0
253 -47 -740 0
-253 47 0
-253 740 0
254 -253 -23 0
-254 253 0
-254 23 0
255 -810 -252 0
-255 810 0
-255 252 0
256 -771 -802 0
-256 771 0
-256 802 0
257 -256 -744 0
-257 256 0
-257 744 0
258 -811 -255 0
-258 811 0
-258 255 0
259 -42 -793 0
-259 42 0
-259 793 0
260 -259 -812 0
-260 259 0
-260 812 0
261 -813 -258 0
-261 813 0
-261 258 0
262 -763 -28 0
-262 763 0
-262 28 0
263 -262 -768 0
-263 262 0
-263 768 0
264 -814 -261 0
-264 814 0
-264 261 0
265 -35 -7 0
-265 35 0
-265 7 0
266 -265 -815 0
-266 265 0
-266 815 0
267 -816 -264 0
-267 816 0
-267 264 0
268 -752 -799 0
-268 752 0
-268 799 0
269 -268 -817 0
-269 268 0
-269 817 0
270 -818 -267 0
-270 818 0
-270 267 0
271 -36 -11 0
-271 36 0
-271 11 0
272 -271 -39 0
-272 271 0
-272 39 0
273 -819 -270 0
-273 819 0
-273 270 0
274 -799 -700 0
-274 799 0
-274 700 0
275 -274 -49 0
-275 274 0
-275 49 0
276 -820 -273 0
-276 820 0
-276 273 0
277 -712 -11 0
-277 712 0
-277 11 0
278 -277 -43 0
-278 277 0
-278 43 0
279 -821 -276 0
-279 821 0
-279 276 0
280 -41 -39 0
-280 41 0
-280 39 0
281 -280 -708 0
-281 280 0
-281 708 0
282 -822 -279 0
-282 822 0
-282 279 0
283 -722 -2 0
-283 722 0
-283 2 0
284 -283 -733 0
-284 283 0
-284 733 0
285 -823 -282 0
-285 823 0
-285 282 0
286 -817 -771 0
-286 817 0
-286 771 0
287 -286 -5 0
-287 286 0
-287 5 0
288 -824 -285 0
-288 824 0
-288 285 0
289 -779 -802 0
-289 779 0
-289 802 0
290 -289 -793 0
-290 289 0
-290 793 0
291 -825 -288 0
-291 825 0
-291 288 0
292 -798 -11 0
-292 798 0
-292 11 0
293 -292 -768 0
-293 292 0
-293 768 0
294 -826 -291 0
-294 826 0
-294 291 0
295 -26 -827 0
-295 26 0
-295 827 0
296 -295 -38 0
-296 295 0
-296 38 0
297 -828 -294 0
-297 828 0
-297 294 0
298 -732 -1 0
-298 732 0
-298 1 0
299 -298 -5 0
-299 298 0
-299 5 0
300 -829 -297 0
-300 829 0
-300 297 0
301 -799 -793 0
-301 799 0
-301 793 0
302 -301 -708 0
-302 301 0
-302 708 0
303 -830 -300 0
-303 830 0
-303 300 0
304 -831 -20 0
-304 831 0
-304 20 0
305 -304 -17 0
-305 304 0
-305 17 0
306 -832 -303 0
-306 832 0
-306 303 0
307 -779 -22 0
-307 779 0
-307 22 0
308 -307 -783 0
-308 307 0
-308 783 0
309 -833 -306 0
-309 833 0
-309 306 0
310 -717 -2 0
-310 717 0
-310 2 0
311 -310 -793 0
-311 310 0
-311 793 0
312 -834 -309 0
-312 834 0
-312 309 0
313 -758 -827 0
-313 758 0
-313 827 0
314 -313 -793 0
-314 313 0
-314 793 0
315 -835 -312 0
-315 835 0
-315 312 0
316 -754 -6 0
-316 754 0
-316 6 0
317 -316 -3 0
-317 316 0
-317 3 0
318 -836 -315 0
-318 836 0
-318 315 0
319 -758 -717 0
-319 758 0
-319 717 0
320 -319 -9 0
-320 319 0
-320 9 0
321 -837 -318 0
-321 837 0
-321 318 0
322 -756 -722 0
-322 756 0
-322 722 0
323 -322 -783 0
-323 322 0
-323 783 0
324 -838 -321 0
-324 838 0
-324 321 0
325 -715 -732 0
-325 715 0
-325 732 0
326 -325 -761 0
-326 325 0
-326 761 0
327 -839 -324 0
-327 839 0
-327 324 0
328 -779 -36 0
-328 779 0
-328 36 0
329 -328 -32 0
-329 328 0
-329 32 0
330 -840 -327 0
-330 840 0
-330 327 0
331 -802 -26 0
-331 802 0
-331 26 0
332 -331 -741 0
-332 331 0
-332 741 0
333 -841 -330 0
-333 841 0
-333 330 0
334 -39 -37 0
-334 39 0
-334 37 0
335 -334 -23 0
-335 334 0
-335 23 0
336 -842 -333 0
-336 842 0
-336 333 0
337 -776 -711 0
-337 776 0
-337 711 0
338 -337 -793 0
-338 337 0
-338 793 0
339 -843 -336 0
-339 843 0
-339 336 0
340 -18 -704 0
-340 18 0
-340 704 0
341 -340 -19 0
-341 340 0
-341 19 0
342 -844 -339 0
-342 844 0
-342 339 0
343 -725 -700 0
-343 725 0
-343 700 0
344 -343 -783 0
-344 343 0
-344 783 0
345 -845 -342 0
-345 845 0
-345 342 0
346 -722 -741 0
-346 722 0
-346 741 0
347 -346 -815 0
-347 346 0
-347 815 0
348 -846 -345 0
-348 846 0
-348 345 0
349 -30 -3 0
-349 30 0
-349 3 0
350 -349 -40 0
-350 349 0
-350 40 0
351 -847 -348 0
-351 847 0
-351 348 0
352 -733 -16 0
-352 733 0
-352 16 0
353 -352 -736 0
-353 352 0
-353 736 0
354 -848 -351 0
-354 848 0
-354 351 0
355 -849 -776 0
-355 849 0
-355 776 0
356 -355 -701 0
-356 355 0
-356 701 0
357 -850 -354 0
-357 850 0
-357 354 0
358 -19 -707 0
-358 19 0
-358 707 0
359 -358 -27 0
-359 358 0
-359 27 0
360 -851 -357 0
-360 851 0
-360 357 0
361 -761 -36 0
-361 761 0
-361 36 0
362 -361 -29 0
-362 361 0
-362 29 0
363 -852 -360 0
-363 852 0
-363 360 0
364 -49 -754 0
-364 49 0
-364 754 0
365 -364 -744 0
-365 364 0
-365 744 0
366 -853 -363 0
-366 853 0
-366 363 0
367 -766 -763 0
-367 766 0
-367 763 0
368 -367 -33 0
-368 367 0
-368 33 0
369 -854 -366 0
-369 854 0
-369 366 0
370 -849 -700 0
-370 849 0
-370 700 0
371 -370 -754 0
-371 370 0
-371 754 0
372 -855 -369 0
-372 855 0
-372 369 0
373 -817 -815 0
-373 817 0
-373 815 0
374 -373 -744 0
-374 373 0
-374 744 0
375 -856 -372 0
-375 856 0
-375 372 0
376 -771 -704 0
-376 771 0
-376 704 0
377 -376 -10 0
-377 376 0
-377 10 0
378 -857 -375 0
-378 857 0
-378 375 0
379 -771 -740 0
-379 771 0
-379 740 0
380 -379 -708 0
-380 379 0
-380 708 0
381 -858 -378 0
-381 858 0
-381 378 0
382 -793 -723 0
-382 793 0
-382 723 0
383 -382 -34 0
-383 382 0
-383 34 0
384 -859 -381 0
-384 859 0
-384 381 0
385 -766 -733 0
-385 766 0
-385 733 0
386 -385 -10 0
-386 385 0
-386 10 0
387 -860 -384 0
-387 860 0
-387 384 0
388 -42 -707 0
-388 42 0
-388 707 0
389 -388 -736 0
-389 388 0
-389 736 0
390 -861 -387 0
-390 861 0
-390 387 0
391 -39 -728 0
-391 39 0
-391 728 0
392 -391 -754 0
-392 391 0
-392 754 0
393 -862 -390 0
-393 862 0
-393 390 0
394 -47 -43 0
-394 47 0
-394 43 0
395 -394 -21 0
-395 394 0
-395 21 0
396 -863 -393 0
-396 863 0
-396 393 0
397 -754 -16 0
-397 754 0
-397 16 0
398 -397 -21 0
-398 397 0
-398 21 0
399 -864 -396 0
-399 864 0
-399 396 0
400 -27 -19 0
-400 27 0
-400 19 0
401 -400 -3 0
-401 400 0
-401 3 0
402 -865 -399 0
-402 865 0
-402 399 0
403 -50 -27 0
-403 50 0
-403 27 0
404 -403 -705 0
-404 403 0
-404 705 0
405 -866 -402 0
-405 866 0
-405 402 0
406 -37 -733 0
-406 37 0
-406 733 0
407 -406 -701 0
-407 406 0
-407 701 0
408 -867 -405 0
-408 867 0
-408 405 0
409 -33 -27 0
-409 33 0
-409 27 0
410 -409 -736 0
-410 409 0
-410 736 0
411 -868 -408 0
-411 868 0
-411 408 0
412 -752 -704 0
-412 752 0
-412 704 0
413 -412 -849 0
-413 412 0
-413 849 0
414 -869 -411 0
-414 869 0
-414 411 0
415 -41 -799 0
-415 41 0
-415 799 0
416 -415 -37 0
-416 415 0
-416 37 0
417 -870 -414 0
-417 870 0
-417 414 0
418 -47 -763 0
-418 47 0
-418 763 0
419 -418 -44 0
-419 418 0
-419 44 0
420 -871 -417 0
-420 871 0
-420 417 0
421 -754 -720 0
-421 754 0
-421 720 0
422 -421 -34 0
-422 421 0
-422 34 0
423 -872 -420 0
-423 872 0
-423 420 0
424 -24 -815 0
-424 24 0
-424 815 0
425 -424 -40 0
-425 424 0
-425 40 0
426 -873 -423 0
-426 873 0
-426 423 0
427 -19 -708 0
-427 19 0
-427 708 0
428 -427 -3 0
-428 427 0
-428 3 0
429 -874 -426 0
-429 874 0
-429 426 0
430 -743 -26 0
-430 743 0
-430 26 0
431 -430 -754 0
-431 430 0
-431 754 0
432 -875 -429 0
-432 875 0
-432 429 0
433 -799 -711 0
-433 799 0
-433 711 0
434 -433 -768 0
-434 433 0
-434 768 0
435 -876 -432 0
-435 876 0
-435 432 0
436 -725 -711 0
-436 725 0
-436 711 0
437 -436 -45 0
-437 436 0
-437 45 0
438 -877 -435 0
-438 877 0
-438 435 0
439 -42 -26 0
-439 42 0
-439 26 0
440 -439 -793 0
-440 439 0
-440 793 0
441 -878 -438 0
-441 878 0
-441 438 0
442 -752 -700 0
-442 752 0
-442 700 0
443 -442 -45 0
-443 442 0
-443 45 0
444 -879 -441 0
-444 879 0
-444 441 0
445 -831 -14 0
-445 831 0
-445 14 0
446 -445 -720 0
-446 445 0
-446 720 0
447 -880 -444 0
-447 880 0
-447 444 0
448 -20 -15 0
-448 20 0
-448 15 0
449 -448 -705 0
-449 448 0
-449 705 0
450 -881 -447 0
-450 881 0
-450 447 0
451 -35 -28 0
-451 35 0
-451 28 0
452 -451 -771 0
-452 451 0
-452 771 0
453 -882 -450 0
-453 882 0
-453 450 0
454 -24 -14 0
-454 24 0
-454 14 0
455 -454 -46 0
-455 454 0
-455 46 0
456 -883 -453 0
-456 883 0
-456 453 0
457 -15 -717 0
-457 15 0
-457 717 0
458 -457 -763 0
-458 457 0
-458 763 0
459 -884 -456 0
-459 884 0
-459 456 0
460 -29 -707 0
-460 29 0
-460 707 0
461 -460 -23 0
-461 460 0
-461 23 0
462 -885 -459 0
-462 885 0
-462 459 0
463 -718 -704 0
-463 718 0
-463 704 0
464 -463 -733 0
-464 463 0
-464 733 0
465 -886 -462 0
-465 886 0
-465 462 0
466 -41 -722 0
-466 41 0
-466 722 0
467 -466 -711 0
-467 466 0
-467 711 0
468 -887 -465 0
-468 887 0
-468 465 0
469 -50 -711 0
-469 50 0
-469 711 0
470 -469 -768 0
-470 469 0
-470 768 0
471 -888 -468 0
-471 888 0
-471 468 0
472 -46 -720 0
-472 46 0
-472 720 0
473 -472 -40 0
-473 472 0
-473 40 0
474 -889 -471 0
-474 889 0
-474 471 0
475 -39 -22 0
-475 39 0
-475 22 0
476 -475 -3 0
-476 475 0
-476 3 0
477 -890 -474 0
-477 890 0
-477 474 0
478 -779 -704 0
-478 779 0
-478 704 0
479 -478 -802 0
-479 478 0
-479 802 0
480 -891 -477 0
-480 891 0
-480 477 0
481 -798 -892 0
-481 798 0
-481 892 0
482 -481 -25 0
-482 481 0
-482 25 0
483 -893 -480 0
-483 893 0
-483 480 0
484 -22 -701 0
-484 22 0
-484 701 0
485 -484 -744 0
-485 484 0
-485 744 0
486 -894 -483 0
-486 894 0
-486 483 0
487 -711 -707 0
-487 711 0
-487 707 0
488 -487 -7 0
-488 487 0
-488 7 0
489 -895 -486 0
-489 895 0
-489 486 0
490 -25 -17 0
-490 25 0
-490 17 0
491 -490 -34 0
-491 490 0
-491 34 0
492 -896 -489 0
-492 896 0
-492 489 0
493 -45 -41 0
-493 45 0
-493 41 0
494 -493 -21 0
-494 493 0
-494 21 0
495 -897 -492 0
-495 897 0
-495 492 0
496 -24 -1 0
-496 24 0
-496 1 0
497 -496 -7 0
-497 496 0
-497 7 0
498 -898 -495 0
-498 898 0
-498 495 0
499 -776 -815 0
-499 776 0
-499 815 0
500 -499 -5 0
-500 499 0
-500 5 0
501 -899 -498 0
-501 899 0
-501 498 0
502 -50 -32 0
-502 50 0
-502 32 0
503 -502 -707 0
-503 502 0
-503 707 0
504 -900 -501 0
-504 900 0
-504 501 0
505 -756 -16 0
-505 756 0
-505 16 0
506 -505 -812 0
-506 505 0
-506 812 0
507 -901 -504 0
-507 901 0
-507 504 0
508 -758 -8 0
-508 758 0
-508 8 0
509 -508 -741 0
-509 508 0
-509 741 0
510 -902 -507 0
-510 902 0
-510 507 0
511 -26 -732 0
-511 26 0
-511 732 0
512 -511 -2 0
-512 511 0
-512 2 0
513 -903 -510 0
-513 903 0
-513 510 0
514 -802 -24 0
-514 802 0
-514 24 0
515 -514 -25 0
-515 514 0
-515 25 0
516 -904 -513 0
-516 904 0
-516 513 0
517 -831 -35 0
-517 831 0
-517 35 0
518 -517 -817 0
-518 517 0
-518 817 0
519 -905 -516 0
-519 905 0
-519 516 0
520 -720 -827 0
-520 720 0
-520 827 0
521 -520 -39 0
-521 520 0
-521 39 0
522 -906 -519 0
-522 906 0
-522 519 0
523 -50 -19 0
-523 50 0
-523 19 0
524 -523 -10 0
-524 523 0
-524 10 0
525 -907 -522 0
-525 907 0
-525 522 0
526 -705 -5 0
-526 705 0
-526 5 0
527 -526 -34 0
-527 526 0
-527 34 0
528 -908 -525 0
-528 908 0
-528 525 0
529 -45 -13 0
-529 45 0
-529 13 0
530 -529 -48 0
-530 529 0
-530 48 0
531 -909 -528 0
-531 909 0
-531 528 0
532 -740 -717 0
-532 740 0
-532 717 0
533 -532 -34 0
-533 532 0
-533 34 0
534 -910 -531 0
-534 910 0
-534 531 0
535 -911 -19 0
-535 911 0
-535 19 0
536 -535 -23 0
-536 535 0
-536 23 0
537 -912 -534 0
-537 912 0
-537 534 0
538 -743 -711 0
-538 743 0
-538 711 0
539 -538 -741 0
-539 538 0
-539 741 0
540 -913 -537 0
-540 913 0
-540 537 0
541 -744 -3 0
-541 744 0
-541 3 0
542 -541 -34 0
-542 541 0
-542 34 0
543 -914 -540 0
-543 914 0
-543 540 0
544 -783 -7 0
-544 783 0
-544 7 0
545 -544 -3 0
-545 544 0
-545 3 0
546 -915 -543 0
-546 915 0
-546 543 0
547 -758 -707 0
-547 758 0
-547 707 0
548 -547 -10 0
-548 547 0
-548 10 0
549 -916 -546 0
-549 916 0
-549 546 0
550 -756 -728 0
-550 756 0
-550 728 0
551 -550 -48 0
-551 550 0
-551 48 0
552 -917 -549 0
-552 917 0
-552 549 0
553 -18 -815 0
-553 18 0
-553 815 0
554 -553 -723 0
-554 553 0
-554 723 0
555 -918 -552 0
-555 918 0
-555 552 0
556 -758 -728 0
-556 758 0
-556 728 0
557 -556 -766 0
-557 556 0
-557 766 0
558 -919 -555 0
-558 919 0
-558 555 0
559 -911 -11 0
-559 911 0
-559 11 0
560 -559 -34 0
-560 559 0
-560 34 0
561 -920 -558 0
-561 920 0
-561 558 0
562 -849 -41 0
-562 849 0
-562 41 0
563 -562 -34 0
-563 562 0
-563 34 0
564 -921 -561 0
-564 921 0
-564 561 0
565 -725 -2 0
-565 725 0
-565 2 0
566 -565 -707 0
-566 565 0
-566 707 0
567 -922 -564 0
-567 922 0
-567 564 0
568 -43 -831 0
-568 43 0
-568 831 0
569 -568 -720 0
-569 568 0
-569 720 0
570 -923 -567 0
-570 923 0
-570 567 0
571 -766 -892 0
-571 766 0
-571 892 0
572 -571 -771 0
-572 571 0
-572 771 0
573 -924 -570 0
-573 924 0
-573 570 0
574 -715 -1 0
-574 715 0
-574 1 0
575 -574 -761 0
-575 574 0
-575 761 0
576 -925 -573 0
-576 925 0
-576 573 0
577 -16 -732 0
-577 16 0
-577 732 0
578 -577 -17 0
-578 577 0
-578 17 0
579 -926 -576 0
-579 926 0
-579 576 0
580 -49 -11 0
-580 49 0
-580 11 0
581 -580 -812 0
-581 580 0
-581 812 0
582 -927 -579 0
-582 927 0
-582 579 0
583 -36 -2 0
-583 36 0
-583 2 0
584 -583 -39 0
-584 583 0
-584 39 0
585 -928 -582 0
-585 928 0
-585 582 0
586 -29 -701 0
-586 29 0
-586 701 0
587 -586 -723 0
-587 586 0
-587 723 0
588 -929 -585 0
-588 929 0
-588 585 0
589 -36 -15 0
-589 36 0
-589 15 0
590 -589 -40 0
-590 589 0
-590 40 0
591 -930 -588 0
-591 930 0
-591 588 0
592 -827 -7 0
-592 827 0
-592 7 0
593 -592 -744 0
-593 592 0
-593 744 0
594 -931 -591 0
-594 931 0
-594 591 0
595 -20 -4 0
-595 20 0
-595 4 0
596 -595 -9 0
-596 595 0
-596 9 0
597 -932 -594 0
-597 932 0
-597 594 0
598 -743 -700 0
-598 743 0
-598 700 0
599 -598 -754 0
-599 598 0
-599 754 0
600 -933 -597 0
-600 933 0
-600 597 0
601 -3 -704 0
-601 3 0
-601 704 0
602 -601 -34 0
-602 601 0
-602 34 0
603 -934 -600 0
-603 934 0
-603 600 0
604 -779 -768 0
-604 779 0
-604 768 0
605 -604 -746 0
-605 604 0
-605 746 0
606 -935 -603 0
-606 935 0
-606 603 0
607 -746 -700 0
-607 746 0
-607 700 0
608 -607 -5 0
-608 607 0
-608 5 0
609 -936 -606 0
-609 936 0
-609 606 0
610 -798 -22 0
-610 798 0
-610 22 0
611 -610 -48 0
-611 610 0
-611 48 0
612 -937 -609 0
-612 937 0
-612 609 0
613 -24 -827 0
-613 24 0
-613 827 0
614 -613 -43 0
-614 613 0
-614 43 0
615 -938 -612 0
-615 938 0
-615 612 0
616 -799 -746 0
-616 799 0
-616 746 0
617 -616 -40 0
-617 616 0
-617 40 0
618 -939 -615 0
-618 939 0
-618 615 0
619 -14 -705 0
-619 14 0
-619 705 0
620 -619 -30 0
-620 619 0
-620 30 0
621 -940 -618 0
-621 940 0
-621 618 0
622 -6 -4 0
-622 6 0
-622 4 0
623 -622 -752 0
-623 622 0
-623 752 0
624 -941 -621 0
-624 941 0
-624 621 0
625 -41 -12 0
-625 41 0
-625 12 0
626 -625 -705 0
-626 625 0
-626 705 0
627 -942 -624 0
-627 942 0
-627 624 0
628 -799 -18 0
-628 799 0
-628 18 0
629 -628 -740 0
-629 628 0
-629 740 0
630 -943 -627 0
-630 943 0
-630 627 0
631 -13 -4 0
-631 13 0
-631 4 0
632 -631 -12 0
-632 631 0
-632 12 0
633 -944 -630 0
-633 944 0
-633 630 0
634 -815 -4 0
-634 815 0
-634 4 0
635 -634 -812 0
-635 634 0
-635 812 0
636 -945 -633 0
-636 945 0
-636 633 0
637 -37 -17 0
-637 37 0
-637 17 0
638 -637 -790 0
-638 637 0
-638 790 0
639 -946 -636 0
-639 946 0
-639 636 0
640 -849 -758 0
-640 849 0
-640 758 0
641 -640 -44 0
-641 640 0
-641 44 0
642 -947 -639 0
-642 947 0
-642 639 0
643 -799 -783 0
-643 799 0
-643 783 0
644 -643 -812 0
-644 643 0
-644 812 0
645 -948 -642 0
-645 948 0
-645 642 0
646 -798 -827 0
-646 798 0
-646 827 0
647 -646 -19 0
-647 646 0
-647 19 0
648 -949 -645 0
-648 949 0
-648 645 0
649 -505 -720 0
-649 505 0
-649 720 0
650 -950 -648 0
-650 950 0
-650 648 0
651 -35 -732 0
-651 35 0
-651 732 0
652 -651 -752 0
-652 651 0
-652 752 0
653 -951 -650 0
-653 951 0
-653 650 0
654 -18 -11 0
-654 18 0
-654 11 0
655 -654 -736 0
-655 654 0
-655 736 0
656 -952 -653 0
-656 952 0
-656 653 0
657 -758 -28 0
-657 758 0
-657 28 0
658 -657 -20 0
-658 657 0
-658 20 0
659 -953 -656 0
-659 953 0
-659 656 0
660 -256 -736 0
-660 256 0
-660 736 0
661 -954 -659 0
-661 954 0
-661 659 0
662 -27 -20 0
-662 27 0
-662 20 0
663 -662 -812 0
-663 662 0
-663 812 0
664 -955 -661 0
-664 955 0
-664 661 0
665 -758 -700 0
-665 758 0
-665 700 0
666 -665 -6 0
-666 665 0
-666 6 0
667 -956 -664 0
-667 956 0
-667 664 0
668 -20 -712 0
-668 20 0
-668 712 0
669 -668 -30 0
-669 668 0
-669 30 0
670 -957 -667 0
-670 957 0
-670 667 0
671 -779 -754 0
-671 779 0
-671 754 0
672 -671 -34 0
-672 671 0
-672 34 0
673 -958 -670 0
-673 958 0
-673 670 0
674 -779 -728 0
-674 779 0
-674 728 0
675 -674 -36 0
-675 674 0
-675 36 0
676 -959 -673 0
-676 959 0
-676 673 0
677 -665 -783 0
-677 665 0
-677 783 0
678 -960 -676 0
-678 960 0
-678 676 0
679 -49 -32 0
-679 49 0
-679 32 0
680 -679 -707 0
-680 679 0
-680 707 0
681 -961 -678 0
-681 961 0
-681 678 0
682 -47 -36 0
-682 47 0
-682 36 0
683 -682 -815 0
-683 682 0
-683 815 0
684 -962 -681 0
-684 962 0
-684 681 0
685 -768 -4 0
-685 768 0
-685 4 0
686 -685 -7 0
-686 685 0
-686 7 0
687 -963 -684 0
-687 963 0
-687 684 0
688 -39 -712 0
-688 39 0
-688 712 0
689 -688 -815 0
-689 688 0
-689 815 0
690 -964 -687 0
-690 964 0
-690 687 0
691 -48 -712 0
-691 48 0
-691 712 0
692 -691 -701 0
-692 691 0
-692 701 0
693 -965 -690 0
-693 965 0
-693 690 0
694 -42 -22 0
-694 42 0
-694 22 0
695 -694 -743 0
-695 694 0
-695 743 0
696 -966 -693 0
-696 966 0
-696 693 0
697 -831 -892 0
-697 831 0
-697 892 0
698 -697 -711 0
-698 697 0
-698 711 0
699 -967 -696 0
-699 967 0
-699 696 0
-700 -2 0
700 2 0
-701 -3 0
701 3 0
-702 -54 0
702 54 0
-703 -52 0
703 52 0
-704 -1 0
704 1 0
-705 -7 0
705 7 0
-706 -57 0
706 57 0
-707 -8 0
707 8 0
-708 -10 0
708 10 0
-709 -60 0
709 60 0
-710 -63 0
710 63 0
-711 -14 0
711 14 0
-712 -13 0
712 13 0
-713 -66 0
713 66 0
-714 -69 0
714 69 0
-715 -16 0
715 16 0
-716 -72 0
716 72 0
-717 -4 0
717 4 0
-718 -19 0
718 19 0
-719 -75 0
719 75 0
-720 -20 0
720 20 0
-721 -78 0
721 78 0
-722 -22 0
722 22 0
-723 -23 0
723 23 0
-724 -81 0
724 81 0
-725 -24 0
725 24 0
-726 -84 0
726 84 0
-727 -87 0
727 87 0
-728 -26 0
728 26 0
-729 -90 0
729 90 0
-730 -93 0
730 93 0
-731 -96 0
731 96 0
-732 -15 0
732 15 0
-733 -33 0
733 33 0
-734 -99 0
734 99 0
-735 -102 0
735 102 0
-736 -34 0
736 34 0
-737 -105 0
737 105 0
-738 -108 0
738 108 0
-739 -111 0
739 111 0
-740 -38 0
740 38 0
-741 -9 0
741 9 0
-742 -114 0
742 114 0
-743 -39 0
743 39 0
-744 -40 0
744 40 0
-745 -117 0
745 117 0
-746 -30 0
746 30 0
-747 -120 0
747 120 0
-748 -123 0
748 123 0
-749 -6 0
749 6 0
-750 -126 0
750 126 0
-751 -129 0
751 129 0
-752 -43 0
752 43 0
-753 -132 0
753 132 0
-754 -29 0
754 29 0
-755 -135 0
755 135 0
-756 -28 0
756 28 0
-757 -138 0
757 138 0
-758 -35 0
758 35 0
-759 -141 0
759 141 0
-760 -144 0
760 144 0
-761 -45 0
761 45 0
-762 -147 0
762 147 0
-763 -32 0
763 32 0
-764 -150 0
764 150 0
-765 -153 0
765 153 0
-766 -37 0
766 37 0
-767 -156 0
767 156 0
-768 -46 0
768 46 0
-769 -159 0
769 159 0
-770 -162 0
770 162 0
-771 -44 0
771 44 0
-772 -165 0
772 165 0
-773 -168 0
773 168 0
-774 -171 0
774 171 0
-775 -174 0
775 174 0
-776 -18 0
776 18 0
-777 -177 0
777 177 0
-778 -180 0
778 180 0
-779 -47 0
779 47 0
-780 -183 0
780 183 0
-781 -186 0
781 186 0
-782 -189 0
782 189 0
-783 -25 0
783 25 0
-784 -192 0
784 192 0
-785 -194 0
785 194 0
-786 -197 0
786 197 0
-787 -200 0
787 200 0
-788 -203 0
788 203 0
-789 -206 0
789 206 0
-790 -5 0
790 5 0
-791 -209 0
791 209 0
-792 -212 0
792 212 0
-793 -27 0
793 27 0
-794 -215 0
794 215 0
-795 -218 0
795 218 0
-796 -221 0
796 221 0
-797 -224 0
797 224 0
-798 -49 0
798 49 0
-799 -36 0
799 36 0
-800 -227 0
800 227 0
-801 -230 0
801 230 0
-802 -42 0
802 42 0
-803 -233 0
803 233 0
-804 -236 0
804 236 0
-805 -239 0
805 239 0
-806 -242 0
806 242 0
-807 -245 0
807 245 0
-808 -248 0
808 248 0
-809 -251 0
809 251 0
-810 -254 0
810 254 0
-811 -257 0
811 257 0
-812 -21 0
812 21 0
-813 -260 0
813 260 0
-814 -263 0
814 263 0
-815 -17 0
815 17 0
-816 -266 0
816 266 0
-817 -50 0
817 50 0
-818 -269 0
818 269 0
-819 -272 0
819 272 0
-820 -275 0
820 275 0
-821 -278 0
821 278 0
-822 -281 0
822 281 0
-823 -284 0
823 284 0
-824 -287 0
824 287 0
-825 -290 0
825 290 0
-826 -293 0
826 293 0
-827 -12 0
827 12 0
-828 -296 0
828 296 0
-829 -299 0
829 299 0
-830 -302 0
830 302 0
-831 -41 0
831 41 0
-832 -305 0
832 305 0
-833 -308 0
833 308 0
-834 -311 0
834 311 0
-835 -314 0
835 314 0
-836 -317 0
836 317 0
-837 -320 0
837 320 0
-838 -323 0
838 323 0
-839 -326 0
839 326 0
-840 -329 0
840 329 0
-841 -332 0
841 332 0
-842 -335 0
842 335 0
-843 -338 0
843 338 0
-844 -341 0
844 341 0
-845 -344 0
845 344 0
-846 -347 0
846 347 0
-847 -350 0
847 350 0
-848 -353 0
848 353 0
-849 -48 0
849 48 0
-850 -356 0
850 356 0
-851 -359 0
851 359 0
-852 -362 0
852 362 0
-853 -365 0
853 365 0
-854 -368 0
854 368 0
-855 -371 0
855 371 0
-856 -374 0
856 374 0
-857 -377 0
857 377 0
-858 -380 0
858 380 0
-859 -383 0
859 383 0
-860 -386 0
860 386 0
-861 -389 0
861 389 0
-862 -392 0
862 392 0
-863 -395 0
863 395 0
-864 -398 0
864 398 0
-865 -401 0
865 401 0
-866 -404 0
866 404 0
-867 -407 0
867 407 0
-868 -410 0
868 410 0
-869 -413 0
869 413 0
-870 -416 0
870 416 0
-871 -419 0
871 419 0
-872 -422 0
872 422 0
-873 -425 0
873 425 0
-874 -428 0
874 428 0
-875 -431 0
875 431 0
-876 -434 0
876 434 0
-877 -437 0
877 437 0
-878 -440 0
878 440 0
-879 -443 0
879 443 0
-880 -446 0
880 446 0
-881 -449 0
881 449 0
-882 -452 0
882 452 0
-883 -455 0
883 455 0
-884 -458 0
884 458 0
-885 -461 0
885 461 0
-886 -464 0
886 464 0
-887 -467 0
887 467 0
-888 -470 0
888 470 0
-889 -473 0
889 473 0
-890 -476 0
890 476 0
-891 -479 0
891 479 0
-892 -11 0
892 11 0
-893 -482 0
893 482 0
-894 -485 0
894 485 0
-895 -488 0
895 488 0
-896 -491 0
896 491 0
-897 -494 0
897 494 0
-898 -497 0
898 497 0
-899 -500 0
899 500 0
-900 -503 0
900 503 0
-901 -506 0
901 506 0
-902 -509 0
902 509 0
-903 -512 0
903 512 0
-904 -515 0
904 515 0
-905 -518 0
905 518 0
-906 -521 0
906 521 0
-907 -524 0
907 524 0
-908 -527 0
908 527 0
-909 -530 0
909 530 0
-910 -533 0
910 533 0
-911 -31 0
911 31 0
-912 -536 0
912 536 0
-913 -539 0
913 539 0
-914 -542 0
914 542 0
-915 -545 0
915 545 0
-916 -548 0
916 548 0
-917 -551 0
917 551 0
-918 -554 0
918 554 0
-919 -557 0
919 557 0
-920 -560 0
920 560 0
-921 -563 0
921 563 0
-922 -566 0
922 566 0
-923 -569 0
923 569 0
-924 -572 0
924 572 0
-925 -575 0
925 575 0
-926 -578 0
926 578 0
-927 -581 0
927 581 0
-928 -584 0
928 584 0
-929 -587 0
929 587 0
-930 -590 0
930 590 0
-931 -593 0
931 593 0
-932 -596 0
932 596 0
-933 -599 0
933 599 0
-934 -602 0
934 602 0
-935 -605 0
935 605 0
-936 -608 0
936 608 0
-937 -611 0
937 611 0
-938 -614 0
938 614 0
-939 -617 0
939 617 0
-940 -620 0
940 620 0
-941 -623 0
941 623 0
-942 -626 0
942 626 0
-943 -629 0
943 629 0
-944 -632 0
944 632 0
-945 -635 0
945 635 0
-946 -638 0
946 638 0
-947 -641 0
947 641 0
-948 -644 0
948 644 0
-949 -647 0
949 647 0
-950 -649 0
950 649 0
-951 -652 0
951 652 0
-952 -655 0
952 655 0
-953 -658 0
953 658 0
-954 -660 0
954 660 0
-955 -663 0
955 663 0
-956 -666 0
956 666 0
-957 -669 0
957 669 0
-958 -672 0
958 672 0
-959 -675 0
959 675 0
-960 -677 0
960 677 0
-961 -680 0
961 680 0
-962 -683 0
962 683 0
-963 -686 0
963 686 0
-964 -689 0
964 689 0
-965 -692 0
965 692 0
-966 -695 0
966 695 0
-967 -698 0
967 698 0
699 0
